NAME: mp11
TYPE: ATSP
DIMENSION: 11
BEST_KNOWN: 132
EDGE_WEIGHT_SECTION 
-1 18 51 40 72 24 99 45 88 38 99 
61 -1 75 12 27 39 67 29 78 21 69 
41 33 -1 7 94 98 39 80 53 91 93 
33 100 25 -1 54 96 11 16 73 79 18 
70 41 85 6 -1 26 54 4 47 28 41 
27 36 66 48 46 -1 48 42 91 100 12 
94 58 68 29 36 4 -1 67 7 48 71 
1 65 59 25 2 31 17 -1 86 12 22 
73 39 74 4 67 99 2 48 -1 90 24 
93 10 4 84 2 61 26 40 22 -1 48 
92 37 4 84 49 13 18 100 39 52 -1 
